;; produced by cvc4_16.drv ;;
(set-logic AUFBVFPDTNIRA)
(set-info :smt-lib-version 2.6)
;;; generated by SMT-LIB2 driver
;;; SMT-LIB2 driver: bit-vectors, common part
;;; SMT-LIB2: integer arithmetic
(declare-sort string 0)

(declare-datatypes ((tuple0 0))
(((Tuple0))))
(declare-sort us_private 0)

(declare-fun private__bool_eq (us_private us_private) Bool)

(declare-const us_null_ext__ us_private)

(declare-sort us_type_of_heap 0)

(declare-datatypes ((us_type_of_heap__ref 0))
(((us_type_of_heap__refqtmk (us_type_of_heap__content us_type_of_heap)))))
(declare-sort us_image 0)

(declare-datatypes ((int__ref 0))
(((int__refqtmk (int__content Int)))))
(declare-datatypes ((bool__ref 0))
(((bool__refqtmk (bool__content Bool)))))
(declare-datatypes ((us_fixed__ref 0))
(((us_fixed__refqtmk (us_fixed__content Int)))))
(declare-datatypes ((real__ref 0))
(((real__refqtmk (real__content Real)))))
(declare-datatypes ((us_private__ref 0))
(((us_private__refqtmk (us_private__content us_private)))))
(define-fun int__ref___projection ((a int__ref)) Int (int__content a))

(define-fun us_fixed__ref___projection ((a us_fixed__ref)) Int (us_fixed__content
                                                               a))

(define-fun bool__ref___projection ((a bool__ref)) Bool (bool__content a))

(define-fun real__ref___projection ((a real__ref)) Real (real__content a))

(define-fun us_private__ref___projection ((a us_private__ref)) us_private 
  (us_private__content a))

(declare-sort integer 0)

(declare-fun integerqtint (integer) Int)

;; integer'axiom
  (assert
  (forall ((i integer))
  (and (<= (- 2147483648) (integerqtint i)) (<= (integerqtint i) 2147483647))))

(define-fun in_range ((x Int)) Bool (and (<= (- 2147483648) x)
                                    (<= x 2147483647)))

(declare-fun attr__ATTRIBUTE_IMAGE (Int) us_image)

(declare-fun attr__ATTRIBUTE_VALUE__pre_check (us_image) Bool)

(declare-fun attr__ATTRIBUTE_VALUE (us_image) Int)

(declare-fun user_eq (integer integer) Bool)

(declare-const dummy integer)

(declare-datatypes ((integer__ref 0))
(((integer__refqtmk (integer__content integer)))))
(define-fun integer__ref_integer__content__projection ((a integer__ref)) integer 
  (integer__content a))

(declare-sort positive 0)

(declare-fun positiveqtint (positive) Int)

;; positive'axiom
  (assert
  (forall ((i positive))
  (and (<= 1 (positiveqtint i)) (<= (positiveqtint i) 2147483647))))

(define-fun in_range1 ((x Int)) Bool (and (<= 1 x) (<= x 2147483647)))

(declare-fun attr__ATTRIBUTE_IMAGE1 (Int) us_image)

(declare-fun attr__ATTRIBUTE_VALUE__pre_check1 (us_image) Bool)

(declare-fun attr__ATTRIBUTE_VALUE1 (us_image) Int)

(declare-fun user_eq1 (positive positive) Bool)

(declare-const dummy1 positive)

(declare-datatypes ((positive__ref 0))
(((positive__refqtmk (positive__content positive)))))
(define-fun positive__ref_positive__content__projection ((a positive__ref)) positive 
  (positive__content a))

(define-fun dynamic_invariant ((temp___expr_46 Int) (temp___is_init_42 Bool)
  (temp___skip_constant_43 Bool) (temp___do_toplevel_44 Bool)
  (temp___do_typ_inv_45 Bool)) Bool (=>
                                    (or (= temp___is_init_42 true)
                                    (<= 1 2147483647)) (in_range1
                                    temp___expr_46)))

(define-fun to_rep ((x positive)) Int (positiveqtint x))

(declare-fun of_rep (Int) positive)

;; inversion_axiom
  (assert
  (forall ((x positive))
  (! (= (of_rep (to_rep x)) x) :pattern ((to_rep x)) )))

;; range_axiom
  (assert
  (forall ((x positive)) (! (in_range1 (to_rep x)) :pattern ((to_rep x)) )))

;; coerce_axiom
  (assert
  (forall ((x Int))
  (! (=> (in_range1 x) (= (to_rep (of_rep x)) x)) :pattern ((to_rep
                                                            (of_rep x))) )))

(declare-sort character 0)

(define-fun in_range2 ((x Int)) Bool (and (<= 0 x) (<= x 255)))

(declare-fun attr__ATTRIBUTE_IMAGE2 (Int) us_image)

(declare-fun attr__ATTRIBUTE_VALUE__pre_check2 (us_image) Bool)

(declare-fun attr__ATTRIBUTE_VALUE2 (us_image) Int)

(declare-fun user_eq2 (character character) Bool)

(declare-const dummy2 character)

(declare-datatypes ((character__ref 0))
(((character__refqtmk (character__content character)))))
(define-fun character__ref_character__content__projection ((a character__ref)) character 
  (character__content a))

(declare-fun to_rep1 (character) Int)

(declare-fun of_rep1 (Int) character)

;; inversion_axiom
  (assert
  (forall ((x character))
  (! (= (of_rep1 (to_rep1 x)) x) :pattern ((to_rep1 x)) )))

;; range_axiom
  (assert
  (forall ((x character)) (! (in_range2
  (to_rep1 x)) :pattern ((to_rep1 x)) )))

;; coerce_axiom
  (assert
  (forall ((x Int))
  (! (=> (in_range2 x) (= (to_rep1 (of_rep1 x)) x)) :pattern ((to_rep1
                                                              (of_rep1 x))) )))

(declare-datatypes ((map__ref 0))
(((map__refqtmk (map__content (Array Int character))))))
(declare-fun slide ((Array Int character) Int Int) (Array Int character))

;; slide_eq
  (assert
  (forall ((a (Array Int character)))
  (forall ((first Int))
  (! (= (slide a first first) a) :pattern ((slide a first first)) ))))

;; slide_def
  (assert
  (forall ((a (Array Int character)))
  (forall ((old_first Int))
  (forall ((new_first Int))
  (forall ((i Int))
  (! (= (select (slide a old_first new_first) i) (select a (- i (- new_first old_first)))) :pattern ((select 
  (slide a old_first new_first) i)) ))))))

(define-fun bool_eq ((a (Array Int character)) (a__first Int) (a__last Int)
  (b (Array Int character)) (b__first Int)
  (b__last Int)) Bool (ite (and
                           (ite (<= a__first a__last)
                           (and (<= b__first b__last)
                           (= (- a__last a__first) (- b__last b__first)))
                           (< b__last b__first))
                           (forall ((temp___idx_91 Int))
                           (=>
                           (and (<= a__first temp___idx_91)
                           (<= temp___idx_91 a__last))
                           (= (to_rep1 (select a temp___idx_91)) (to_rep1
                                                                 (select b (+ (- b__first a__first) temp___idx_91)))))))
                      true false))

;; bool_eq_rev
  (assert
  (forall ((a (Array Int character)) (b (Array Int character)))
  (forall ((a__first Int) (a__last Int) (b__first Int) (b__last Int))
  (=> (= (bool_eq b b__first b__last a a__first a__last) true)
  (and
  (ite (<= a__first a__last)
  (and (<= b__first b__last) (= (- a__last a__first) (- b__last b__first)))
  (< b__last b__first))
  (forall ((temp___idx_91 Int))
  (=> (and (<= a__first temp___idx_91) (<= temp___idx_91 a__last))
  (= (to_rep1 (select a temp___idx_91)) (to_rep1
                                        (select b (+ (- b__first a__first) temp___idx_91)))))))))))

(declare-const empty_stack_str (Array Int character))

(declare-const attr__ATTRIBUTE_ADDRESS Int)

(declare-sort natural 0)

(declare-fun naturalqtint (natural) Int)

;; natural'axiom
  (assert
  (forall ((i natural))
  (and (<= 0 (naturalqtint i)) (<= (naturalqtint i) 2147483647))))

(define-fun in_range3 ((x Int)) Bool (and (<= 0 x) (<= x 2147483647)))

(declare-fun attr__ATTRIBUTE_IMAGE3 (Int) us_image)

(declare-fun attr__ATTRIBUTE_VALUE__pre_check3 (us_image) Bool)

(declare-fun attr__ATTRIBUTE_VALUE3 (us_image) Int)

(declare-fun user_eq3 (natural natural) Bool)

(declare-const dummy3 natural)

(declare-datatypes ((natural__ref 0))
(((natural__refqtmk (natural__content natural)))))
(define-fun natural__ref_natural__content__projection ((a natural__ref)) natural 
  (natural__content a))

(define-fun to_rep2 ((x natural)) Int (naturalqtint x))

(declare-fun of_rep2 (Int) natural)

;; inversion_axiom
  (assert
  (forall ((x natural))
  (! (= (of_rep2 (to_rep2 x)) x) :pattern ((to_rep2 x)) )))

;; range_axiom
  (assert
  (forall ((x natural)) (! (in_range3 (to_rep2 x)) :pattern ((to_rep2 x)) )))

;; coerce_axiom
  (assert
  (forall ((x Int))
  (! (=> (in_range3 x) (= (to_rep2 (of_rep2 x)) x)) :pattern ((to_rep2
                                                              (of_rep2 x))) )))

(define-fun to_rep3 ((x integer)) Int (integerqtint x))

(declare-fun of_rep3 (Int) integer)

;; inversion_axiom
  (assert
  (forall ((x integer))
  (! (= (of_rep3 (to_rep3 x)) x) :pattern ((to_rep3 x)) )))

;; range_axiom
  (assert
  (forall ((x integer)) (! (in_range (to_rep3 x)) :pattern ((to_rep3 x)) )))

;; coerce_axiom
  (assert
  (forall ((x Int))
  (! (=> (in_range x) (= (to_rep3 (of_rep3 x)) x)) :pattern ((to_rep3
                                                             (of_rep3 x))) )))

(declare-sort element 0)

(declare-fun elementqtint (element) Int)

;; element'axiom
  (assert
  (forall ((i element))
  (and (<= (- 2147483648) (elementqtint i)) (<= (elementqtint i) 2147483647))))

(define-fun in_range4 ((x Int)) Bool (and (<= (- 2147483648) x)
                                     (<= x 2147483647)))

(declare-fun attr__ATTRIBUTE_IMAGE4 (Int) us_image)

(declare-fun attr__ATTRIBUTE_VALUE__pre_check4 (us_image) Bool)

(declare-fun attr__ATTRIBUTE_VALUE4 (us_image) Int)

(declare-fun user_eq4 (element element) Bool)

(declare-const dummy4 element)

(declare-datatypes ((element__ref 0))
(((element__refqtmk (element__content element)))))
(define-fun element__ref_element__content__projection ((a element__ref)) element 
  (element__content a))

(define-fun to_rep4 ((x element)) Int (elementqtint x))

(declare-fun of_rep4 (Int) element)

;; inversion_axiom
  (assert
  (forall ((x element))
  (! (= (of_rep4 (to_rep4 x)) x) :pattern ((to_rep4 x)) )))

;; range_axiom
  (assert
  (forall ((x element)) (! (in_range4 (to_rep4 x)) :pattern ((to_rep4 x)) )))

;; coerce_axiom
  (assert
  (forall ((x Int))
  (! (=> (in_range4 x) (= (to_rep4 (of_rep4 x)) x)) :pattern ((to_rep4
                                                              (of_rep4 x))) )))

(declare-datatypes ((map__ref1 0))
(((map__refqtmk1 (map__content1 (Array Int element))))))
(declare-fun slide1 ((Array Int element) Int Int) (Array Int element))

;; slide_eq
  (assert
  (forall ((a (Array Int element)))
  (forall ((first Int))
  (! (= (slide1 a first first) a) :pattern ((slide1 a first first)) ))))

;; slide_def
  (assert
  (forall ((a (Array Int element)))
  (forall ((old_first Int))
  (forall ((new_first Int))
  (forall ((i Int))
  (! (= (select (slide1 a old_first new_first) i) (select a (- i (- new_first old_first)))) :pattern ((select 
  (slide1 a old_first new_first) i)) ))))))

(define-fun bool_eq1 ((a (Array Int element)) (a__first Int) (a__last Int)
  (b (Array Int element)) (b__first Int)
  (b__last Int)) Bool (ite (and
                           (ite (<= a__first a__last)
                           (and (<= b__first b__last)
                           (= (- a__last a__first) (- b__last b__first)))
                           (< b__last b__first))
                           (forall ((temp___idx_155 Int))
                           (=>
                           (and (<= a__first temp___idx_155)
                           (<= temp___idx_155 a__last))
                           (= (to_rep4 (select a temp___idx_155)) (to_rep4
                                                                  (select b (+ (- b__first a__first) temp___idx_155)))))))
                      true false))

;; bool_eq_rev
  (assert
  (forall ((a (Array Int element)) (b (Array Int element)))
  (forall ((a__first Int) (a__last Int) (b__first Int) (b__last Int))
  (=> (= (bool_eq1 b b__first b__last a a__first a__last) true)
  (and
  (ite (<= a__first a__last)
  (and (<= b__first b__last) (= (- a__last a__first) (- b__last b__first)))
  (< b__last b__first))
  (forall ((temp___idx_155 Int))
  (=> (and (<= a__first temp___idx_155) (<= temp___idx_155 a__last))
  (= (to_rep4 (select a temp___idx_155)) (to_rep4
                                         (select b (+ (- b__first a__first) temp___idx_155)))))))))))

(declare-sort t 0)

(declare-fun first (t) integer)

(declare-fun last (t) integer)

(declare-fun mk (Int Int) t)

;; mk_def
  (assert
  (forall ((f Int) (l Int))
  (! (=> (in_range f)
     (=> (in_range l)
     (and (= (to_rep3 (first (mk f l))) f) (= (to_rep3 (last (mk f l))) l)))) :pattern (
  (mk f l)) )))

(define-fun dynamic_property ((range_first Int) (range_last Int) (low Int)
  (high Int)) Bool (and (in_range low)
                   (and (in_range high)
                   (=> (<= low high) (and (in_range low) (in_range high))))))

(declare-datatypes ((us_t 0))
(((us_tqtmk (elts (Array Int element))(rt t)))))
(define-fun to_array ((a us_t)) (Array Int element) (elts a))

(define-fun of_array ((a (Array Int element)) (f Int)
  (l Int)) us_t (us_tqtmk a (mk f l)))

(define-fun first1 ((a us_t)) Int (to_rep3 (first (rt a))))

(define-fun last1 ((a us_t)) Int (to_rep3 (last (rt a))))

(define-fun length ((a us_t)) Int (ite (<= (first1 a) (last1 a))
                                  (+ (- (last1 a) (first1 a)) 1) 0))

(declare-const value__size Int)

(declare-const object__size Int)

(declare-const component__size Int)

(declare-const alignment Int)

;; value__size_axiom
  (assert (<= 0 value__size))

;; object__size_axiom
  (assert (<= 0 object__size))

;; component__size_axiom
  (assert (<= 0 component__size))

;; alignment_axiom
  (assert (<= 0 alignment))

(define-fun bool_eq2 ((x us_t)
  (y us_t)) Bool (bool_eq1 (elts x) (to_rep3 (first (rt x)))
                 (to_rep3 (last (rt x))) (elts y) (to_rep3 (first (rt y)))
                 (to_rep3 (last (rt y)))))

(declare-fun user_eq5 (us_t us_t) Bool)

(declare-const dummy5 us_t)

(declare-datatypes ((elements__ref 0))
(((elements__refqtmk (elements__content us_t)))))
(define-fun elements__ref_elements__content__projection ((a elements__ref)) us_t 
  (elements__content a))

(declare-datatypes ((t8s__ref 0))
(((t8s__refqtmk (t8s__content us_t)))))
(define-fun t8s__ref_t8s__content__projection ((a t8s__ref)) us_t (t8s__content
                                                                  a))

(declare-datatypes ((us_split_discrs 0))
(((us_split_discrsqtmk (rec__stacks__stack__max positive)))))
(define-fun us_split_discrs_rec__stacks__stack__max__projection ((a us_split_discrs)) positive 
  (rec__stacks__stack__max a))

(declare-datatypes ((us_split_discrs__ref 0))
(((us_split_discrs__refqtmk (us_split_discrs__content us_split_discrs)))))
(define-fun us_split_discrs__ref___split_discrs__content__projection ((a us_split_discrs__ref)) us_split_discrs 
  (us_split_discrs__content a))

(declare-datatypes ((us_split_fields 0))
(((us_split_fieldsqtmk
  (rec__stacks__stack__top natural)(rec__stacks__stack__data us_t)(rec__ext__ us_private)))))
(define-fun us_split_fields_rec__stacks__stack__top__projection ((a us_split_fields)) natural 
  (rec__stacks__stack__top a))

(define-fun us_split_fields_rec__stacks__stack__data__projection ((a us_split_fields)) us_t 
  (rec__stacks__stack__data a))

(define-fun us_split_fields_rec__ext____projection ((a us_split_fields)) us_private 
  (rec__ext__ a))

(declare-datatypes ((us_split_fields__ref 0))
(((us_split_fields__refqtmk (us_split_fields__content us_split_fields)))))
(define-fun us_split_fields__ref___split_fields__content__projection ((a us_split_fields__ref)) us_split_fields 
  (us_split_fields__content a))

(declare-datatypes ((us_rep 0))
(((us_repqtmk
  (us_split_discrs1 us_split_discrs)(us_split_fields1 us_split_fields)(attr__tag Int)))))
(define-fun us_rep___split_discrs__projection ((a us_rep)) us_split_discrs 
  (us_split_discrs1 a))

(define-fun us_rep___split_fields__projection ((a us_rep)) us_split_fields 
  (us_split_fields1 a))

(define-fun us_rep_attr__tag__projection ((a us_rep)) Int (attr__tag a))

(define-fun bool_eq3 ((a us_rep)
  (b us_rep)) Bool (ite (and
                        (= (to_rep
                           (rec__stacks__stack__max (us_split_discrs1 a))) 
                        (to_rep
                        (rec__stacks__stack__max (us_split_discrs1 b))))
                        (and
                        (= (to_rep2
                           (rec__stacks__stack__top (us_split_fields1 a))) 
                        (to_rep2
                        (rec__stacks__stack__top (us_split_fields1 b))))
                        (= (bool_eq2
                           (rec__stacks__stack__data (us_split_fields1 a))
                           (rec__stacks__stack__data (us_split_fields1 b))) true)))
                   true false))

(declare-fun us_dispatch_eq (us_rep us_rep) Bool)

(declare-const us_tag Int)

(declare-const value__size1 Int)

(declare-const object__size1 Int)

(declare-const alignment1 Int)

;; value__size_axiom
  (assert (<= 0 value__size1))

;; object__size_axiom
  (assert (<= 0 object__size1))

;; alignment_axiom
  (assert (<= 0 alignment1))

(declare-const stacks__stack__max__first__bit Int)

(declare-const stacks__stack__max__last__bit Int)

(declare-const stacks__stack__max__position Int)

;; stacks__stack__max__first__bit_axiom
  (assert (<= 0 stacks__stack__max__first__bit))

;; stacks__stack__max__last__bit_axiom
  (assert (< stacks__stack__max__first__bit stacks__stack__max__last__bit))

;; stacks__stack__max__position_axiom
  (assert (<= 0 stacks__stack__max__position))

(declare-const stacks__stack__top__first__bit Int)

(declare-const stacks__stack__top__last__bit Int)

(declare-const stacks__stack__top__position Int)

;; stacks__stack__top__first__bit_axiom
  (assert (<= 0 stacks__stack__top__first__bit))

;; stacks__stack__top__last__bit_axiom
  (assert (< stacks__stack__top__first__bit stacks__stack__top__last__bit))

;; stacks__stack__top__position_axiom
  (assert (<= 0 stacks__stack__top__position))

(declare-const stacks__stack__data__first__bit Int)

(declare-const stacks__stack__data__last__bit Int)

(declare-const stacks__stack__data__position Int)

;; stacks__stack__data__first__bit_axiom
  (assert (<= 0 stacks__stack__data__first__bit))

;; stacks__stack__data__last__bit_axiom
  (assert (< stacks__stack__data__first__bit stacks__stack__data__last__bit))

;; stacks__stack__data__position_axiom
  (assert (<= 0 stacks__stack__data__position))

(declare-fun user_eq6 (us_rep us_rep) Bool)

(declare-const dummy6 us_rep)

(declare-datatypes ((stack__ref 0))
(((stack__refqtmk (stack__content us_rep)))))
(define-fun stack__ref_stack__content__projection ((a stack__ref)) us_rep 
  (stack__content a))

(declare-fun temp___String_Literal_154 (tuple0) (Array Int character))

;; temp___String_Literal_154__def_axiom
  (assert
  (forall ((us_void_param tuple0))
  (! (and
     (and
     (= (to_rep1 (select (temp___String_Literal_154 us_void_param) 1)) 101)
     (= (to_rep1 (select (temp___String_Literal_154 us_void_param) 2)) 109))
     (and
     (and
     (and
     (and
     (= (to_rep1 (select (temp___String_Literal_154 us_void_param) 3)) 112)
     (= (to_rep1 (select (temp___String_Literal_154 us_void_param) 4)) 116))
     (= (to_rep1 (select (temp___String_Literal_154 us_void_param) 5)) 121))
     (and
     (= (to_rep1 (select (temp___String_Literal_154 us_void_param) 6)) 32)
     (= (to_rep1 (select (temp___String_Literal_154 us_void_param) 7)) 115)))
     (and
     (and
     (= (to_rep1 (select (temp___String_Literal_154 us_void_param) 8)) 116)
     (= (to_rep1 (select (temp___String_Literal_154 us_void_param) 9)) 97))
     (and
     (= (to_rep1 (select (temp___String_Literal_154 us_void_param) 10)) 99)
     (= (to_rep1 (select (temp___String_Literal_154 us_void_param) 11)) 107))))) :pattern (
  (temp___String_Literal_154 us_void_param)) )))

(define-fun dynamic_invariant1 ((temp___expr_18 Int) (temp___is_init_14 Bool)
  (temp___skip_constant_15 Bool) (temp___do_toplevel_16 Bool)
  (temp___do_typ_inv_17 Bool)) Bool (=>
                                    (or (= temp___is_init_14 true)
                                    (<= (- 2147483648) 2147483647)) (in_range
                                    temp___expr_18)))

(define-fun dynamic_invariant2 ((temp___expr_39 Int) (temp___is_init_35 Bool)
  (temp___skip_constant_36 Bool) (temp___do_toplevel_37 Bool)
  (temp___do_typ_inv_38 Bool)) Bool (=>
                                    (or (= temp___is_init_35 true)
                                    (<= 0 2147483647)) (in_range3
                                    temp___expr_39)))

(define-fun dynamic_invariant3 ((temp___expr_74 Int) (temp___is_init_70 Bool)
  (temp___skip_constant_71 Bool) (temp___do_toplevel_72 Bool)
  (temp___do_typ_inv_73 Bool)) Bool (=>
                                    (or (= temp___is_init_70 true)
                                    (<= 0 255)) (in_range2 temp___expr_74)))

;; empty_stack_str__def_axiom
  (assert (= empty_stack_str (temp___String_Literal_154 Tuple0)))

(define-fun dynamic_invariant4 ((temp___expr_187 us_rep)
  (temp___is_init_183 Bool) (temp___skip_constant_184 Bool)
  (temp___do_toplevel_185 Bool)
  (temp___do_typ_inv_186 Bool)) Bool (let ((temp___188 (rec__stacks__stack__max
                                                       (us_split_discrs1
                                                       temp___expr_187))))
                                     (and (dynamic_property 1
                                     (to_rep temp___188)
                                     (first1
                                     (rec__stacks__stack__data
                                     (us_split_fields1 temp___expr_187)))
                                     (last1
                                     (rec__stacks__stack__data
                                     (us_split_fields1 temp___expr_187))))
                                     (and
                                     (= (first1
                                        (rec__stacks__stack__data
                                        (us_split_fields1 temp___expr_187))) 1)
                                     (= (last1
                                        (rec__stacks__stack__data
                                        (us_split_fields1 temp___expr_187))) 
                                     (to_rep temp___188))))))

(assert
;; defqtvc
 ;; File "stacks.ads", line 4, characters 0-0
  (not
  (forall ((usf Int) (usf1 us_rep))
  (=> (dynamic_invariant usf true true true true)
  (=> (= (to_rep (rec__stacks__stack__max (us_split_discrs1 usf1))) usf)
  (=> (<= 1 usf) (<= (- 2147483648) 1)))))))
(check-sat)
